
Gurobi 8.1.1 (mac64, Python) logging started Tue Dec 10 18:41:19 2019

Academic license - for non-commercial use only
Optimize a model with 5 rows, 3 columns and 9 nonzeros
Coefficient statistics:
  Matrix range     [1e+00, 2e+00]
  Objective range  [2e+00, 3e+00]
  Bounds range     [0e+00, 0e+00]
  RHS range        [3e+00, 2e+01]
Presolve removed 5 rows and 3 columns
Presolve time: 0.02s
Presolve: All rows and columns removed
Iteration    Objective       Primal Inf.    Dual Inf.      Time
       0    4.0000000e+01   0.000000e+00   0.000000e+00      0s

Solved in 0 iterations and 0.04 seconds
Optimal objective  4.000000000e+01
Optimize a model with 5 rows, 3 columns and 9 nonzeros
Coefficient statistics:
  Matrix range     [1e+00, 3e+00]
  Objective range  [1e+00, 2e+00]
  Bounds range     [0e+00, 0e+00]
  RHS range        [3e+00, 2e+01]
Presolve removed 5 rows and 3 columns
Presolve time: 0.01s
Presolve: All rows and columns removed
Iteration    Objective       Primal Inf.    Dual Inf.      Time
       0    1.1000000e+01   0.000000e+00   0.000000e+00      0s

Solved in 0 iterations and 0.02 seconds
Optimal objective  1.100000000e+01
Optimize a model with 4 rows, 2 columns and 6 nonzeros
Coefficient statistics:
  Matrix range     [1e+00, 2e+00]
  Objective range  [1e-02, 1e-02]
  Bounds range     [0e+00, 0e+00]
  RHS range        [3e+00, 2e+01]
Presolve removed 4 rows and 2 columns
Presolve time: 0.04s
Presolve: All rows and columns removed
Iteration    Objective       Primal Inf.    Dual Inf.      Time
       0    4.1666667e-01   0.000000e+00   0.000000e+00      0s

Solved in 0 iterations and 0.06 seconds
Optimal objective  4.166666667e-01
Optimize a model with 6 rows, 3 columns and 12 nonzeros
Coefficient statistics:
  Matrix range     [4e-02, 2e+00]
  Objective range  [1e+00, 1e+00]
  Bounds range     [0e+00, 0e+00]
  RHS range        [4e-01, 2e+01]
Presolve removed 2 rows and 0 columns
Presolve time: 0.04s
Presolved: 4 rows, 3 columns, 10 nonzeros

Iteration    Objective       Primal Inf.    Dual Inf.      Time
       0    0.0000000e+00   5.000000e-01   0.000000e+00      0s
       3    2.1428571e-01   0.000000e+00   0.000000e+00      0s

Solved in 3 iterations and 0.06 seconds
Optimal objective  2.142857143e-01
